WARNING: for repeatability, setting FPU to use double precision
============================[ Problem Statistics ]=============================
|                                                                             |
|  Number of variables:        127069                                         |
|  Number of clauses:          296657                                         |
|  Parse time:                   0.07 s                                       |
|                                                                             |
c ============================[ Search Statistics ]==============================
c | Conflicts |          ORIGINAL         |          LEARNT          | Progress |
c |           |    Vars  Clauses Literals |    Limit  Clauses Lit/Cl |          |
c ===============================================================================
c Switched to VSIDS.
c Switched to LRB.
c Switched to VSIDS.
c Switched to LRB.
c Switched to VSIDS.
c Switched to LRB.
c Switched to VSIDS.
c Switched to LRB.
c Switched to VSIDS.
c ===============================================================================
restarts                  : 3758
conflicts                 : 905954         (1140 /sec)
decisions                 : 31322078       (0.00 % random) (39403 /sec)
propagations              : 2081705516     (2618802 /sec)
conflict literals         : 60072064       (55.76 % deleted)

conflicts w/ DIP found    : 581257         (64.16 % of conflicts)
conflicts w/ dangerous DIP: 0              (0.00 % of conflicts)
conflicts w/ DIP-learning : 172            (0.02 % of conflicts)
decisions on ext vars     : 959            (0.00 % of decisions)
total ext vars            : 80          
tried delete ext vars     : 5           
deleted ext vars          : 5           
max ext vars              : 75          

Memory used               : 178.00 MB
CPU time                  : 794.907 s
DIP computation time      : 78.001 s (9.81 % of total time)
ER_sel time               : 1.1789 s
ER_add time               : 0.000843 s
ER_delC time              : 0 s
ER_delV time              : 0.000559 s
ER_sub time               : 1.54358 s
ER_stat time              : 0 s

UNSATISFIABLE
